<?xml version = "1.0" standalone="yes"?>
<!-- This file has been generated by DOcplex version 2.23.222  -->
<CPLEXSolution version="1.0">
 <header
   problemName="CVRP"
   objectiveValue="16011.4"
  />
 <variables>
  <variable name="x_0_1" index="0" value="1.00000"/>
  <variable name="x_0_3" index="2" value="1.00000"/>
  <variable name="x_0_4" index="3" value="1.00000"/>
  <variable name="x_0_5" index="4" value="1.00000"/>
  <variable name="x_0_8" index="7" value="1.00000"/>
  <variable name="x_0_9" index="8" value="1.00000"/>
  <variable name="x_0_11" index="10" value="1.00000"/>
  <variable name="x_0_12" index="11" value="1.00000"/>
  <variable name="x_0_13" index="12" value="1.00000"/>
  <variable name="x_0_14" index="13" value="1.00000"/>
  <variable name="x_0_15" index="14" value="1.00000"/>
  <variable name="x_0_17" index="16" value="1.00000"/>
  <variable name="x_0_18" index="17" value="1.00000"/>
  <variable name="x_0_19" index="18" value="1.00000"/>
  <variable name="x_0_20" index="19" value="1.00000"/>
  <variable name="x_0_21" index="20" value="1.00000"/>
  <variable name="x_0_24" index="23" value="1.00000"/>
  <variable name="x_0_25" index="24" value="1.00000"/>
  <variable name="x_0_26" index="25" value="1.00000"/>
  <variable name="x_0_27" index="26" value="1.00000"/>
  <variable name="x_1_10" index="36" value="1.00000"/>
  <variable name="x_2_0" index="54" value="1.00000"/>
  <variable name="x_3_0" index="81" value="1.00000"/>
  <variable name="x_4_0" index="108" value="1.00000"/>
  <variable name="x_5_2" index="137" value="1.00000"/>
  <variable name="x_6_0" index="162" value="1.00000"/>
  <variable name="x_7_0" index="189" value="1.00000"/>
  <variable name="x_8_0" index="216" value="1.00000"/>
  <variable name="x_9_0" index="243" value="1.00000"/>
  <variable name="x_10_0" index="270" value="1.00000"/>
  <variable name="x_11_0" index="297" value="1.00000"/>
  <variable name="x_12_0" index="324" value="1.00000"/>
  <variable name="x_13_0" index="351" value="1.00000"/>
  <variable name="x_14_0" index="378" value="1.00000"/>
  <variable name="x_15_0" index="405" value="1.00000"/>
  <variable name="x_16_6" index="438" value="1.00000"/>
  <variable name="x_17_0" index="459" value="1.00000"/>
  <variable name="x_18_7" index="493" value="1.00000"/>
  <variable name="x_19_0" index="513" value="1.00000"/>
  <variable name="x_20_0" index="540" value="1.00000"/>
  <variable name="x_21_0" index="567" value="1.00000"/>
  <variable name="x_22_16" index="610" value="1.00000"/>
  <variable name="x_23_0" index="621" value="1.00000"/>
  <variable name="x_24_0" index="648" value="1.00000"/>
  <variable name="x_25_23" index="698" value="1.00000"/>
  <variable name="x_26_0" index="702" value="1.00000"/>
  <variable name="x_27_22" index="751" value="1.00000"/>
  <variable name="u_1" index="756" value="62.00000"/>
  <variable name="u_2" index="757" value="77.00000"/>
  <variable name="u_3" index="758" value="78.00000"/>
  <variable name="u_4" index="759" value="78.00000"/>
  <variable name="u_5" index="760" value="52.00000"/>
  <variable name="u_6" index="761" value="67.00000"/>
  <variable name="u_7" index="762" value="78.00000"/>
  <variable name="u_8" index="763" value="71.00000"/>
  <variable name="u_9" index="764" value="63.00000"/>
  <variable name="u_10" index="765" value="64.00000"/>
  <variable name="u_11" index="766" value="78.00000"/>
  <variable name="u_12" index="767" value="58.00000"/>
  <variable name="u_13" index="768" value="78.00000"/>
  <variable name="u_14" index="769" value="78.00000"/>
  <variable name="u_15" index="770" value="64.00000"/>
  <variable name="u_16" index="771" value="36.00000"/>
  <variable name="u_17" index="772" value="78.00000"/>
  <variable name="u_18" index="773" value="26.00000"/>
  <variable name="u_19" index="774" value="59.00000"/>
  <variable name="u_20" index="775" value="35.00000"/>
  <variable name="u_21" index="776" value="52.00000"/>
  <variable name="u_22" index="777" value="35.00000"/>
  <variable name="u_23" index="778" value="64.00000"/>
  <variable name="u_24" index="779" value="78.00000"/>
  <variable name="u_25" index="780" value="15.00000"/>
  <variable name="u_26" index="781" value="78.00000"/>
  <variable name="u_27" index="782" value="33.00000"/>
 </variables>
</CPLEXSolution>
